c Random generated cnf formula, satisfiable: false
p cnf 10 50
6 -9 -10 0
-5 -10 6 0
-6 10 5 0
3 -10 9 0
-1 -7 3 0
10 8 7 0
-10 -1 -8 0
-8 -10 -9 0
2 -7 -5 0
-3 -6 10 0
6 4 -8 0
-4 2 -6 0
5 7 -4 0
-8 -5 -7 0
3 -8 -4 0
10 2 9 0
3 4 7 0
-3 1 7 0
10 -4 1 0
10 9 1 0
2 -3 6 0
-10 5 -6 0
-10 6 7 0
7 6 8 0
-10 2 5 0
-3 -5 -6 0
-4 7 10 0
-7 3 -4 0
-7 -1 -10 0
1 -8 4 0
-8 6 -9 0
-2 5 -1 0
7 -10 6 0
-5 -2 1 0
-4 10 8 0
-6 2 -5 0
10 2 1 0
-4 10 -9 0
-2 6 10 0
7 5 -2 0
-3 7 -10 0
6 -5 8 0
-10 1 6 0
2 6 -1 0
-1 10 2 0
-3 9 -6 0
-4 -10 -5 0
8 9 -10 0
-9 -4 -8 0
8 9 -1 0
